assets/logs/5_10x10_clingo/5_10x10_clingo.solution.log

-----------------------------------------
| 29| 67|  1| 83| 28| 63| 24| 46| 40|  0|
-----------------------------------------
| 79| 85| 27| 65|  1|  1| 38| 61| 22| 44|
-----------------------------------------
| 69| 31| 81| 30| 25| 26| 48| 42| 21| 59|
-----------------------------------------
|  0| 77| 87| 73| 50| 36| 23| 20|  1|  1|
-----------------------------------------
| 33| 71| 32| 47| 89|  1| 88| 19| 57| 18|
-----------------------------------------
|  0| 56| 75|  4| 34| 52| 14| 53| 86| 17|
-----------------------------------------
|  1| 35| 45| 54| 49|  2| 84| 15| 16| 55|
-----------------------------------------
| 58|  1|  6| 41| 82| 12| 51| 76| 70| 13|
-----------------------------------------
| 37| 43|  5| 62|  8| 78|  9| 66|  1| 74|
-----------------------------------------
|  3| 60| 39| 80|  7| 64| 10| 72| 11| 68|
-----------------------------------------

| n = 10 | k = 9 | coverage = 97, 97.0%
 Time 300.001
 Name 5_10x10_clingo

