assets/logs/5_10x10_clingo/5_10x10_clingo.log
clingo version 5.4.0
Reading from ...ts/logs/5_10x10_clingo/knights_tour.lp ...
Solving...
Answer: 1
occ(1,5,6) occ(1,9,9) occ(1,7,1) occ(1,2,5) occ(1,1,3) occ(1,2,6) occ(1,8,2) occ(1,4,9) occ(1,4,10) occ(2,7,6) occ(3,10,1) coverage(6)
Optimization: -6
Answer: 2
occ(1,5,6) occ(1,9,9) occ(1,7,1) occ(1,2,5) occ(1,1,3) occ(1,2,6) occ(1,8,2) occ(1,4,9) occ(1,4,10) occ(2,7,6) occ(3,10,1) coverage(7) occ(4,9,7) occ(6,10,9)
Optimization: -7
Answer: 3
occ(1,5,6) occ(1,9,9) occ(1,7,1) occ(1,2,5) occ(1,1,3) occ(1,2,6) occ(1,8,2) occ(1,4,9) occ(1,4,10) occ(2,7,6) occ(3,10,1) coverage(59) occ(44,1,5) occ(50,1,2) occ(55,1,8) occ(76,1,9) occ(90,1,6) occ(94,1,10) occ(25,2,4) occ(40,2,2) occ(46,2,3) occ(57,2,10) occ(78,2,7) occ(92,2,8) occ(23,3,6) occ(27,3,2) occ(42,3,4) occ(48,3,1) occ(52,3,3) occ(53,3,9) occ(74,3,10) occ(82,3,8) occ(88,3,7) occ(13,4,2) occ(21,4,4) occ(31,4,3) occ(38,4,1) occ(80,4,6) occ(86,4,5) occ(9,5,5) occ(18,5,8) occ(22,5,4) occ(29,5,1) occ(36,5,3) occ(51,5,10) occ(54,5,2) occ(72,5,9) occ(84,5,7) occ(10,6,9) occ(11,6,3) occ(15,6,1) occ(16,6,10) occ(19,6,5) occ(20,6,6) occ(33,6,2) occ(56,6,4) occ(7,7,4) occ(12,7,7) occ(17,7,3) occ(24,7,5) occ(34,7,2) occ(49,7,9) occ(70,7,10) occ(8,8,10) occ(14,8,9) occ(32,8,4) occ(35,8,1) occ(43,8,7) occ(58,8,3) occ(68,8,8) occ(4,9,7) occ(5,9,3) occ(26,9,6) occ(30,9,2) occ(39,9,4) occ(47,9,10) occ(60,9,1) occ(64,9,5) occ(6,10,9) occ(28,10,4) occ(37,10,2) occ(41,10,6) occ(45,10,8) occ(62,10,3) occ(66,10,7)
Optimization: -59
Answer: 4
occ(1,5,6) occ(1,9,9) occ(1,7,1) occ(1,2,5) occ(1,1,3) occ(1,2,6) occ(1,8,2) occ(1,4,9) occ(1,4,10) occ(2,7,6) occ(3,10,1) coverage(61) occ(44,1,5) occ(50,1,2) occ(76,1,9) occ(86,1,8) occ(90,1,6) occ(94,1,10) occ(25,2,4) occ(40,2,2) occ(46,2,3) occ(78,2,7) occ(84,2,10) occ(92,2,8) occ(23,3,6) occ(27,3,2) occ(42,3,4) occ(48,3,1) occ(52,3,3) occ(53,3,9) occ(74,3,10) occ(82,3,8) occ(88,3,7) occ(21,4,4) occ(31,4,3) occ(38,4,1) occ(55,4,7) occ(80,4,6) occ(13,5,7) occ(18,5,8) occ(22,5,4) occ(29,5,1) occ(36,5,3) occ(51,5,10) occ(54,5,2) occ(57,5,5) occ(72,5,9) occ(11,6,9) occ(16,6,10) occ(19,6,5) occ(20,6,6) occ(33,6,2) occ(56,6,4) occ(9,7,7) occ(15,7,8) occ(24,7,5) occ(34,7,2) occ(49,7,9) occ(59,7,4) occ(70,7,10) occ(7,8,5) occ(8,8,10) occ(14,8,9) occ(17,8,6) occ(32,8,4) occ(35,8,1) occ(43,8,7) occ(58,8,3) occ(68,8,8) occ(4,9,7) occ(5,9,3) occ(10,9,8) occ(26,9,6) occ(30,9,2) occ(39,9,4) occ(47,9,10) occ(60,9,1) occ(64,9,5) occ(6,10,9) occ(12,10,10) occ(28,10,4) occ(37,10,2) occ(41,10,6) occ(45,10,8) occ(62,10,3) occ(66,10,7)
Optimization: -61
Answer: 5
occ(1,5,6) occ(1,9,9) occ(1,7,1) occ(1,2,5) occ(1,1,3) occ(1,2,6) occ(1,8,2) occ(1,4,9) occ(1,4,10) occ(2,7,6) occ(3,10,1) coverage(63) occ(44,1,5) occ(50,1,2) occ(55,1,8) occ(59,1,6) occ(76,1,9) occ(94,1,10) occ(25,2,4) occ(40,2,2) occ(46,2,3) occ(78,2,7) occ(92,2,8) occ(23,3,6) occ(27,3,2) occ(42,3,4) occ(48,3,1) occ(52,3,3) occ(53,3,9) occ(57,3,7) occ(61,3,5) occ(74,3,10) occ(82,3,8) occ(13,4,2) occ(21,4,4) occ(31,4,3) occ(38,4,1) occ(49,4,8) occ(80,4,6) occ(86,4,5) occ(90,4,7) occ(9,5,5) occ(18,5,8) occ(29,5,1) occ(36,5,3) occ(51,5,10) occ(54,5,2) occ(72,5,9) occ(84,5,7) occ(11,6,3) occ(15,6,1) occ(16,6,10) occ(19,6,5) occ(33,6,2) occ(47,6,9) occ(56,6,4) occ(88,6,6) occ(7,7,4) occ(17,7,3) occ(20,7,9) occ(34,7,2) occ(45,7,7) occ(70,7,10) occ(8,8,10) occ(14,8,9) occ(32,8,4) occ(35,8,1) occ(43,8,5) occ(58,8,3) occ(68,8,8) occ(4,9,7) occ(5,9,3) occ(10,9,8) occ(22,9,10) occ(26,9,6) occ(30,9,2) occ(39,9,4) occ(60,9,1) occ(64,9,5) occ(6,10,9) occ(12,10,10) occ(24,10,8) occ(28,10,4) occ(37,10,2) occ(41,10,6) occ(62,10,3) occ(66,10,7)
Optimization: -63
Answer: 6
occ(1,5,6) occ(1,9,9) occ(1,7,1) occ(1,2,5) occ(1,1,3) occ(1,2,6) occ(1,8,2) occ(1,4,9) occ(1,4,10) occ(2,7,6) occ(3,10,1) coverage(65) occ(44,1,5) occ(50,1,2) occ(55,1,8) occ(59,1,6) occ(63,1,4) occ(76,1,9) occ(94,1,10) occ(25,2,4) occ(40,2,2) occ(46,2,3) occ(78,2,7) occ(92,2,8) occ(23,3,6) occ(27,3,2) occ(42,3,4) occ(48,3,1) occ(52,3,3) occ(53,3,9) occ(57,3,7) occ(61,3,5) occ(74,3,10) occ(82,3,8) occ(13,4,2) occ(21,4,4) occ(31,4,3) occ(38,4,1) occ(49,4,8) occ(80,4,6) occ(86,4,5) occ(90,4,7) occ(9,5,5) occ(18,5,8) occ(29,5,1) occ(36,5,3) occ(51,5,10) occ(54,5,2) occ(72,5,9) occ(84,5,7) occ(11,6,3) occ(15,6,1) occ(16,6,10) occ(19,6,5) occ(33,6,2) occ(47,6,9) occ(56,6,4) occ(88,6,6) occ(7,7,4) occ(17,7,3) occ(20,7,9) occ(34,7,2) occ(45,7,7) occ(70,7,10) occ(8,8,10) occ(14,8,9) occ(32,8,4) occ(35,8,1) occ(43,8,5) occ(58,8,3) occ(68,8,8) occ(4,9,7) occ(5,9,3) occ(10,9,8) occ(22,9,10) occ(26,9,6) occ(30,9,2) occ(39,9,4) occ(60,9,1) occ(64,9,5) occ(6,10,9) occ(12,10,10) occ(24,10,8) occ(28,10,4) occ(37,10,2) occ(41,10,6) occ(62,10,3) occ(66,10,7)
Optimization: -65
Answer: 7
occ(1,5,6) occ(1,9,9) occ(1,7,1) occ(1,2,5) occ(1,1,3) occ(1,2,6) occ(1,8,2) occ(1,4,9) occ(1,4,10) occ(2,7,6) occ(3,10,1) coverage(67) occ(44,1,5) occ(50,1,2) occ(55,1,8) occ(59,1,6) occ(76,1,9) occ(94,1,10) occ(25,2,4) occ(40,2,2) occ(46,2,3) occ(78,2,7) occ(92,2,8) occ(23,3,6) occ(27,3,2) occ(42,3,4) occ(48,3,1) occ(52,3,3) occ(53,3,9) occ(57,3,7) occ(61,3,5) occ(74,3,10) occ(82,3,8) occ(13,4,2) occ(21,4,4) occ(31,4,3) occ(38,4,1) occ(49,4,8) occ(80,4,6) occ(86,4,5) occ(90,4,7) occ(9,5,5) occ(18,5,8) occ(29,5,1) occ(36,5,3) occ(51,5,10) occ(54,5,2) occ(63,5,4) occ(72,5,9) occ(84,5,7) occ(11,6,3) occ(15,6,1) occ(16,6,10) occ(19,6,5) occ(33,6,2) occ(47,6,9) occ(56,6,4) occ(88,6,6) occ(7,7,4) occ(17,7,3) occ(20,7,9) occ(34,7,2) occ(45,7,7) occ(65,7,5) occ(70,7,10) occ(8,8,10) occ(14,8,9) occ(32,8,4) occ(35,8,1) occ(43,8,5) occ(58,8,3) occ(68,8,8) occ(4,9,7) occ(5,9,3) occ(10,9,8) occ(22,9,10) occ(26,9,6) occ(30,9,2) occ(39,9,4) occ(60,9,1) occ(64,9,5) occ(6,10,9) occ(12,10,10) occ(24,10,8) occ(28,10,4) occ(37,10,2) occ(41,10,6) occ(62,10,3) occ(66,10,7)
Optimization: -67
Answer: 8
occ(1,5,6) occ(1,9,9) occ(1,7,1) occ(1,2,5) occ(1,1,3) occ(1,2,6) occ(1,8,2) occ(1,4,9) occ(1,4,10) occ(2,7,6) occ(3,10,1) coverage(69) occ(44,1,5) occ(50,1,2) occ(55,1,8) occ(59,1,6) occ(76,1,9) occ(94,1,10) occ(25,2,4) occ(40,2,2) occ(46,2,3) occ(78,2,7) occ(92,2,8) occ(23,3,6) occ(27,3,2) occ(42,3,4) occ(48,3,1) occ(52,3,3) occ(53,3,9) occ(57,3,7) occ(61,3,5) occ(74,3,10) occ(82,3,8) occ(13,4,2) occ(21,4,4) occ(31,4,3) occ(38,4,1) occ(49,4,8) occ(80,4,6) occ(86,4,5) occ(90,4,7) occ(9,5,5) occ(18,5,8) occ(29,5,1) occ(36,5,3) occ(51,5,10) occ(54,5,2) occ(63,5,4) occ(72,5,9) occ(84,5,7) occ(11,6,3) occ(15,6,1) occ(16,6,10) occ(19,6,5) occ(33,6,2) occ(47,6,9) occ(56,6,4) occ(88,6,6) occ(7,7,4) occ(17,7,3) occ(20,7,9) occ(34,7,2) occ(45,7,7) occ(65,7,5) occ(70,7,10) occ(8,8,10) occ(14,8,9) occ(32,8,4) occ(35,8,1) occ(43,8,5) occ(58,8,3) occ(67,8,7) occ(68,8,8) occ(4,9,7) occ(5,9,3) occ(10,9,8) occ(22,9,10) occ(26,9,6) occ(30,9,2) occ(39,9,4) occ(60,9,1) occ(64,9,5) occ(6,10,9) occ(12,10,10) occ(24,10,8) occ(28,10,4) occ(37,10,2) occ(41,10,6) occ(62,10,3) occ(66,10,7)
Optimization: -69
Answer: 9
occ(1,5,6) occ(1,9,9) occ(1,7,1) occ(1,2,5) occ(1,1,3) occ(1,2,6) occ(1,8,2) occ(1,4,9) occ(1,4,10) occ(2,7,6) occ(3,10,1) coverage(71) occ(44,1,5) occ(50,1,2) occ(55,1,8) occ(59,1,6) occ(76,1,9) occ(94,1,10) occ(25,2,4) occ(40,2,2) occ(46,2,3) occ(78,2,7) occ(92,2,8) occ(23,3,6) occ(27,3,2) occ(42,3,4) occ(48,3,1) occ(52,3,3) occ(53,3,9) occ(57,3,7) occ(61,3,5) occ(74,3,10) occ(82,3,8) occ(13,4,2) occ(21,4,4) occ(31,4,3) occ(38,4,1) occ(49,4,8) occ(80,4,6) occ(86,4,5) occ(90,4,7) occ(9,5,5) occ(18,5,8) occ(29,5,1) occ(36,5,3) occ(51,5,10) occ(54,5,2) occ(63,5,4) occ(72,5,9) occ(84,5,7) occ(11,6,3) occ(15,6,1) occ(16,6,10) occ(19,6,5) occ(33,6,2) occ(47,6,9) occ(56,6,4) occ(69,6,8) occ(88,6,6) occ(7,7,4) occ(17,7,3) occ(20,7,9) occ(34,7,2) occ(45,7,7) occ(65,7,5) occ(70,7,10) occ(8,8,10) occ(14,8,9) occ(32,8,4) occ(35,8,1) occ(43,8,5) occ(58,8,3) occ(67,8,7) occ(68,8,8) occ(4,9,7) occ(5,9,3) occ(10,9,8) occ(22,9,10) occ(26,9,6) occ(30,9,2) occ(39,9,4) occ(60,9,1) occ(64,9,5) occ(6,10,9) occ(12,10,10) occ(24,10,8) occ(28,10,4) occ(37,10,2) occ(41,10,6) occ(62,10,3) occ(66,10,7)
Optimization: -71
Answer: 10
occ(1,5,6) occ(1,9,9) occ(1,7,1) occ(1,2,5) occ(1,1,3) occ(1,2,6) occ(1,8,2) occ(1,4,9) occ(1,4,10) occ(2,7,6) occ(3,10,1) coverage(73) occ(44,1,5) occ(50,1,2) occ(55,1,8) occ(59,1,6) occ(76,1,9) occ(94,1,10) occ(25,2,4) occ(40,2,2) occ(46,2,3) occ(78,2,7) occ(92,2,8) occ(23,3,6) occ(27,3,2) occ(42,3,4) occ(48,3,1) occ(52,3,3) occ(53,3,9) occ(57,3,7) occ(61,3,5) occ(74,3,10) occ(82,3,8) occ(13,4,2) occ(21,4,4) occ(31,4,3) occ(38,4,1) occ(49,4,8) occ(80,4,6) occ(86,4,5) occ(90,4,7) occ(9,5,5) occ(18,5,8) occ(29,5,1) occ(36,5,3) occ(51,5,10) occ(54,5,2) occ(63,5,4) occ(72,5,9) occ(84,5,7) occ(11,6,3) occ(15,6,1) occ(16,6,10) occ(19,6,5) occ(33,6,2) occ(47,6,9) occ(56,6,4) occ(67,6,7) occ(88,6,6) occ(7,7,4) occ(17,7,3) occ(20,7,9) occ(34,7,2) occ(45,7,7) occ(65,7,5) occ(70,7,10) occ(8,8,10) occ(14,8,9) occ(32,8,4) occ(35,8,1) occ(43,8,5) occ(58,8,3) occ(68,8,8) occ(69,8,6) occ(4,9,7) occ(5,9,3) occ(10,9,8) occ(22,9,10) occ(26,9,6) occ(30,9,2) occ(39,9,4) occ(60,9,1) occ(64,9,5) occ(6,10,9) occ(12,10,10) occ(24,10,8) occ(28,10,4) occ(37,10,2) occ(41,10,6) occ(62,10,3) occ(66,10,7) occ(71,10,5)
Optimization: -73
Answer: 11
occ(1,5,6) occ(1,9,9) occ(1,7,1) occ(1,2,5) occ(1,1,3) occ(1,2,6) occ(1,8,2) occ(1,4,9) occ(1,4,10) occ(2,7,6) occ(3,10,1) coverage(77) occ(22,1,10) occ(49,1,9) occ(53,1,7) occ(59,1,6) occ(67,1,2) occ(72,1,5) occ(24,2,8) occ(47,2,7) occ(55,2,9) occ(63,2,3) occ(69,2,4) occ(20,3,9) occ(32,3,3) occ(51,3,8) occ(57,3,7) occ(61,3,5) occ(65,3,1) occ(70,3,6) occ(74,3,4) occ(26,4,7) occ(34,4,5) occ(45,4,6) occ(52,4,8) occ(68,4,4) occ(71,4,3) occ(76,4,2) occ(82,4,1) occ(4,5,5) occ(18,5,8) occ(30,5,4) occ(36,5,7) occ(40,5,9) occ(54,5,10) occ(73,5,1) occ(80,5,3) occ(17,6,4) occ(28,6,6) occ(43,6,7) occ(50,6,9) occ(56,6,8) occ(66,6,5) occ(75,6,3) occ(78,6,1) occ(84,6,2) occ(6,7,4) occ(9,7,3) occ(16,7,9) occ(19,7,2) occ(33,7,7) occ(38,7,8) occ(41,7,5) occ(42,7,10) occ(7,8,5) occ(10,8,7) occ(11,8,1) occ(15,8,3) occ(25,8,4) occ(44,8,8) occ(48,8,10) occ(58,8,9) occ(64,8,6) occ(5,9,3) occ(8,9,5) occ(14,9,10) occ(21,9,1) occ(27,9,2) occ(31,9,6) occ(35,9,8) occ(39,9,4) occ(60,9,7) occ(12,10,8) occ(13,10,2) occ(23,10,3) occ(29,10,4) occ(37,10,6) occ(46,10,9) occ(62,10,5)
Optimization: -77
Answer: 12
occ(1,5,6) occ(1,9,9) occ(1,7,1) occ(1,2,5) occ(1,1,3) occ(1,2,6) occ(1,8,2) occ(1,4,9) occ(1,4,10) occ(2,7,6) occ(3,10,1) coverage(79) occ(22,1,10) occ(49,1,9) occ(53,1,7) occ(59,1,6) occ(67,1,2) occ(72,1,5) occ(77,1,1) occ(24,2,8) occ(47,2,7) occ(55,2,9) occ(63,2,3) occ(69,2,4) occ(20,3,9) occ(32,3,3) occ(51,3,8) occ(57,3,7) occ(61,3,5) occ(65,3,1) occ(70,3,6) occ(74,3,4) occ(75,3,2) occ(26,4,7) occ(34,4,5) occ(45,4,6) occ(52,4,8) occ(68,4,4) occ(71,4,3) occ(76,4,2) occ(82,4,1) occ(4,5,5) occ(18,5,8) occ(30,5,4) occ(36,5,7) occ(40,5,9) occ(54,5,10) occ(73,5,1) occ(80,5,3) occ(17,6,4) occ(28,6,6) occ(43,6,7) occ(50,6,9) occ(56,6,8) occ(66,6,5) occ(78,6,1) occ(84,6,2) occ(6,7,4) occ(9,7,3) occ(16,7,9) occ(19,7,2) occ(33,7,7) occ(38,7,8) occ(41,7,5) occ(42,7,10) occ(7,8,5) occ(10,8,7) occ(11,8,1) occ(15,8,3) occ(25,8,4) occ(44,8,8) occ(48,8,10) occ(58,8,9) occ(64,8,6) occ(5,9,3) occ(8,9,5) occ(14,9,10) occ(21,9,1) occ(27,9,2) occ(31,9,6) occ(35,9,8) occ(39,9,4) occ(60,9,7) occ(12,10,8) occ(13,10,2) occ(23,10,3) occ(29,10,4) occ(37,10,6) occ(46,10,9) occ(62,10,5)
Optimization: -79
Answer: 13
occ(1,5,6) occ(1,9,9) occ(1,7,1) occ(1,2,5) occ(1,1,3) occ(1,2,6) occ(1,8,2) occ(1,4,9) occ(1,4,10) occ(2,7,6) occ(3,10,1) coverage(81) occ(22,1,8) occ(48,1,9) occ(52,1,5) occ(69,1,1) occ(77,1,7) occ(78,1,4) occ(24,2,10) occ(44,2,8) occ(50,2,7) occ(67,2,3) occ(79,2,9) occ(80,2,2) occ(13,3,1) occ(17,3,3) occ(20,3,9) occ(26,3,8) occ(46,3,10) occ(49,3,7) occ(54,3,4) occ(71,3,2) occ(75,3,6) occ(76,3,5) occ(11,4,3) occ(16,4,8) occ(19,4,1) occ(42,4,7) occ(51,4,5) occ(65,4,2) occ(73,4,4) occ(9,5,5) occ(15,5,2) occ(18,5,10) occ(28,5,9) occ(47,5,8) occ(56,5,3) occ(64,5,7) occ(74,5,4) occ(14,6,7) occ(21,6,2) occ(40,6,6) occ(45,6,10) occ(53,6,4) occ(58,6,5) occ(63,6,3) occ(66,6,9) occ(7,7,4) occ(12,7,9) occ(25,7,3) occ(30,7,10) occ(55,7,2) occ(62,7,8) occ(68,7,7) occ(72,7,5) occ(6,8,7) occ(23,8,1) occ(31,8,3) occ(32,8,8) occ(38,8,5) occ(43,8,9) occ(60,8,6) occ(61,8,4) occ(4,9,5) occ(5,9,3) occ(10,9,10) occ(27,9,2) occ(35,9,4) occ(36,9,7) occ(39,9,8) occ(57,9,1) occ(70,9,6) occ(8,10,8) occ(29,10,4) occ(33,10,2) occ(34,10,9) occ(37,10,6) occ(41,10,10) occ(59,10,3)
Optimization: -81
Answer: 14
occ(1,5,6) occ(1,9,9) occ(1,7,1) occ(1,2,5) occ(1,1,3) occ(1,2,6) occ(1,8,2) occ(1,4,9) occ(1,4,10) occ(2,7,6) occ(3,10,1) coverage(82) occ(20,1,1) occ(24,1,5) occ(25,1,7) occ(39,1,8) occ(43,1,10) occ(53,1,9) occ(75,1,6) occ(79,1,2) occ(22,2,3) occ(23,2,9) occ(37,2,10) occ(45,2,8) occ(55,2,7) occ(77,2,4) occ(12,3,3) occ(18,3,2) occ(26,3,4) occ(27,3,6) occ(35,3,8) occ(41,3,9) occ(51,3,10) occ(57,3,5) occ(73,3,7) occ(81,3,1) occ(10,4,5) occ(16,4,4) occ(21,4,8) occ(33,4,6) occ(42,4,3) occ(47,4,7) occ(80,4,2) occ(14,5,2) occ(28,5,3) occ(29,5,5) occ(40,5,1) occ(49,5,9) occ(59,5,4) occ(71,5,8) occ(4,6,4) occ(8,6,6) occ(19,6,9) occ(31,6,7) occ(44,6,2) occ(62,6,5) occ(65,6,8) occ(69,6,10) occ(78,6,3) occ(11,7,8) occ(30,7,4) occ(38,7,2) occ(48,7,3) occ(61,7,5) occ(64,7,7) occ(68,7,9) occ(6,8,5) occ(13,8,10) occ(17,8,8) occ(46,8,1) occ(54,8,3) occ(60,8,6) occ(63,8,7) occ(67,8,9) occ(76,8,4) occ(5,9,3) occ(9,9,7) occ(32,9,5) occ(36,9,1) occ(50,9,2) occ(58,9,4) occ(66,9,8) occ(70,9,10) occ(74,9,6) occ(7,10,5) occ(15,10,9) occ(34,10,3) occ(52,10,4) occ(56,10,2) occ(72,10,8)
Optimization: -82
Answer: 15
occ(1,5,6) occ(1,9,9) occ(1,7,1) occ(1,2,5) occ(1,1,3) occ(1,2,6) occ(1,8,2) occ(1,4,9) occ(1,4,10) occ(2,7,6) occ(3,10,1) coverage(83) occ(20,1,1) occ(24,1,5) occ(25,1,7) occ(39,1,8) occ(43,1,10) occ(53,1,9) occ(75,1,6) occ(79,1,2) occ(22,2,3) occ(23,2,9) occ(37,2,10) occ(45,2,8) occ(55,2,7) occ(77,2,4) occ(82,2,1) occ(12,3,3) occ(18,3,2) occ(26,3,4) occ(27,3,6) occ(35,3,8) occ(41,3,9) occ(51,3,10) occ(57,3,5) occ(73,3,7) occ(81,3,1) occ(10,4,5) occ(16,4,4) occ(21,4,8) occ(33,4,6) occ(42,4,3) occ(47,4,7) occ(80,4,2) occ(14,5,2) occ(28,5,3) occ(29,5,5) occ(40,5,1) occ(49,5,9) occ(59,5,4) occ(71,5,8) occ(4,6,4) occ(8,6,6) occ(19,6,9) occ(31,6,7) occ(44,6,2) occ(62,6,5) occ(65,6,8) occ(69,6,10) occ(78,6,3) occ(11,7,8) occ(30,7,4) occ(38,7,2) occ(48,7,3) occ(61,7,5) occ(64,7,7) occ(68,7,9) occ(6,8,5) occ(13,8,10) occ(17,8,8) occ(46,8,1) occ(54,8,3) occ(60,8,6) occ(63,8,7) occ(67,8,9) occ(76,8,4) occ(5,9,3) occ(9,9,7) occ(32,9,5) occ(36,9,1) occ(50,9,2) occ(58,9,4) occ(66,9,8) occ(70,9,10) occ(74,9,6) occ(7,10,5) occ(15,10,9) occ(34,10,3) occ(52,10,4) occ(56,10,2) occ(72,10,8)
Optimization: -83
Answer: 16
occ(1,5,6) occ(1,9,9) occ(1,7,1) occ(1,2,5) occ(1,1,3) occ(1,2,6) occ(1,8,2) occ(1,4,9) occ(1,4,10) occ(2,7,6) occ(3,10,1) coverage(84) occ(20,1,1) occ(24,1,5) occ(25,1,7) occ(39,1,8) occ(43,1,10) occ(53,1,9) occ(75,1,6) occ(79,1,2) occ(22,2,3) occ(23,2,9) occ(28,2,2) occ(37,2,10) occ(45,2,8) occ(55,2,7) occ(77,2,4) occ(82,2,1) occ(12,3,3) occ(18,3,2) occ(26,3,4) occ(27,3,6) occ(35,3,8) occ(41,3,9) occ(51,3,10) occ(57,3,5) occ(73,3,7) occ(81,3,1) occ(10,4,5) occ(16,4,4) occ(21,4,8) occ(30,4,1) occ(33,4,6) occ(47,4,7) occ(80,4,2) occ(83,4,3) occ(14,5,2) occ(29,5,5) occ(44,5,3) occ(49,5,9) occ(59,5,4) occ(71,5,8) occ(4,6,4) occ(8,6,6) occ(19,6,9) occ(31,6,7) occ(32,6,2) occ(46,6,1) occ(62,6,5) occ(65,6,8) occ(69,6,10) occ(78,6,3) occ(11,7,8) occ(34,7,4) occ(42,7,2) occ(48,7,3) occ(61,7,5) occ(64,7,7) occ(68,7,9) occ(6,8,5) occ(13,8,10) occ(17,8,8) occ(54,8,3) occ(60,8,6) occ(63,8,7) occ(67,8,9) occ(76,8,4) occ(5,9,3) occ(9,9,7) occ(36,9,5) occ(40,9,1) occ(50,9,2) occ(58,9,4) occ(66,9,8) occ(70,9,10) occ(74,9,6) occ(7,10,5) occ(15,10,9) occ(38,10,3) occ(52,10,4) occ(56,10,2) occ(72,10,8)
Optimization: -84
Answer: 17
occ(1,5,6) occ(1,9,9) occ(1,7,1) occ(1,2,5) occ(1,1,3) occ(1,2,6) occ(1,8,2) occ(1,4,9) occ(1,4,10) occ(2,7,6) occ(3,10,1) coverage(85) occ(19,1,8) occ(20,1,1) occ(25,1,7) occ(29,1,5) occ(54,1,6) occ(60,1,9) occ(17,2,10) occ(22,2,3) occ(23,2,9) occ(52,2,4) occ(56,2,8) occ(62,2,7) occ(84,2,2) occ(12,3,3) occ(15,3,8) occ(18,3,2) occ(21,3,7) occ(27,3,6) occ(31,3,4) occ(44,3,9) occ(58,3,10) occ(10,4,5) occ(16,4,4) occ(24,4,2) occ(33,4,6) occ(46,4,7) occ(50,4,3) occ(64,4,8) occ(82,4,1) occ(13,5,7) occ(14,5,2) occ(28,5,3) occ(35,5,4) occ(41,5,1) occ(42,5,8) occ(48,5,5) occ(66,5,10) occ(69,5,9) occ(4,6,4) occ(8,6,6) occ(26,6,1) occ(38,6,5) occ(39,6,3) occ(65,6,8) occ(71,6,7) occ(80,6,2) occ(11,7,8) occ(30,7,4) occ(37,7,5) occ(40,7,7) occ(43,7,2) occ(53,7,3) occ(67,7,10) occ(68,7,9) occ(6,8,5) occ(36,8,6) occ(49,8,4) occ(55,8,1) occ(63,8,7) occ(73,8,8) occ(77,8,10) occ(78,8,3) occ(83,8,9) occ(5,9,3) occ(9,9,7) occ(32,9,5) occ(45,9,1) occ(51,9,2) occ(59,9,4) occ(70,9,10) occ(74,9,6) occ(79,9,8) occ(7,10,5) occ(34,10,7) occ(47,10,3) occ(57,10,2) occ(61,10,6) occ(72,10,8) occ(75,10,9) occ(76,10,4) occ(81,10,10)
Optimization: -85
Answer: 18
occ(1,5,6) occ(1,9,9) occ(1,7,1) occ(1,2,5) occ(1,1,3) occ(1,2,6) occ(1,8,2) occ(1,4,9) occ(1,4,10) occ(2,7,6) occ(3,10,1) coverage(87) occ(20,1,1) occ(45,1,9) occ(49,1,5) occ(50,1,2) occ(55,1,6) occ(79,1,8) occ(85,1,7) occ(22,2,3) occ(46,2,1) occ(47,2,7) occ(52,2,4) occ(53,2,8) occ(77,2,10) occ(83,2,9) occ(18,3,2) occ(24,3,1) occ(43,3,10) occ(48,3,3) occ(51,3,6) occ(57,3,5) occ(64,3,9) occ(75,3,8) occ(81,3,7) occ(86,3,4) occ(6,4,7) occ(16,4,4) occ(26,4,3) occ(41,4,8) occ(44,4,2) occ(54,4,5) occ(73,4,6) occ(4,5,5) occ(14,5,2) occ(40,5,1) occ(56,5,7) occ(59,5,4) occ(62,5,8) occ(66,5,10) occ(69,5,9) occ(84,5,3) occ(8,6,6) occ(21,6,2) occ(28,6,4) occ(39,6,9) occ(42,6,3) occ(60,6,10) occ(65,6,8) occ(71,6,7) occ(82,6,5) occ(12,7,3) occ(19,7,4) occ(37,7,7) occ(38,7,2) occ(58,7,8) occ(61,7,5) occ(67,7,10) occ(68,7,9) occ(10,8,5) occ(13,8,8) occ(17,8,6) occ(23,8,1) occ(30,8,3) occ(35,8,9) occ(63,8,7) occ(80,8,4) occ(5,9,3) occ(9,9,7) occ(27,9,4) occ(31,9,8) occ(32,9,5) occ(36,9,1) occ(70,9,10) occ(74,9,6) occ(78,9,2) occ(7,10,5) occ(11,10,9) occ(15,10,7) occ(25,10,2) occ(29,10,6) occ(33,10,10) occ(34,10,3) occ(72,10,8) occ(76,10,4)
Optimization: -87
Answer: 19
occ(1,5,6) occ(1,9,9) occ(1,7,1) occ(1,2,5) occ(1,1,3) occ(1,2,6) occ(1,8,2) occ(1,4,9) occ(1,4,10) occ(2,7,6) occ(3,10,1) coverage(88) occ(47,1,6) occ(53,1,7) occ(59,1,8) occ(63,1,10) occ(69,1,9) occ(17,2,4) occ(51,2,9) occ(57,2,10) occ(58,2,3) occ(64,2,2) occ(65,2,8) occ(71,2,7) occ(15,3,2) occ(19,3,6) occ(24,3,3) occ(45,3,5) occ(49,3,7) occ(55,3,8) occ(56,3,1) occ(61,3,9) occ(62,3,4) occ(67,3,10) occ(13,4,4) occ(26,4,5) occ(43,4,7) occ(50,4,3) occ(60,4,2) occ(66,4,1) occ(73,4,8) occ(81,4,6) occ(9,5,5) occ(18,5,8) occ(21,5,7) occ(22,5,4) occ(28,5,3) occ(37,5,9) occ(48,5,1) occ(54,5,2) occ(75,5,10) occ(11,6,3) occ(20,6,6) occ(23,6,9) occ(30,6,1) occ(33,6,10) occ(41,6,8) occ(52,6,4) occ(68,6,2) occ(79,6,7) occ(83,6,5) occ(7,7,4) occ(16,7,7) occ(32,7,3) occ(35,7,8) occ(39,7,10) occ(46,7,2) occ(76,7,5) occ(77,7,9) occ(8,8,8) occ(25,8,10) occ(31,8,9) occ(36,8,6) occ(70,8,1) occ(74,8,3) occ(78,8,7) occ(82,8,5) occ(85,8,4) occ(4,9,7) occ(5,9,3) occ(10,9,10) occ(14,9,6) occ(27,9,8) occ(34,9,4) occ(40,9,5) occ(44,9,1) occ(86,9,2) occ(6,10,9) occ(12,10,8) occ(29,10,10) occ(38,10,7) occ(42,10,3) occ(72,10,2) occ(80,10,6) occ(84,10,4) occ(87,10,5)
Optimization: -88
Answer: 20
occ(1,5,6) occ(1,9,9) occ(1,7,1) occ(1,2,5) occ(1,1,3) occ(1,2,6) occ(1,8,2) occ(1,4,9) occ(1,4,10) occ(2,7,6) occ(3,10,1) coverage(89) occ(24,1,1) occ(30,1,2) occ(31,1,4) occ(34,1,6) occ(38,1,10) occ(49,1,5) occ(53,1,7) occ(59,1,8) occ(88,1,9) occ(26,2,3) occ(32,2,4) occ(35,2,7) occ(36,2,8) occ(45,2,2) occ(57,2,10) occ(22,3,2) occ(28,3,1) occ(29,3,3) occ(33,3,5) occ(40,3,9) occ(47,3,4) occ(51,3,6) occ(55,3,8) occ(61,3,7) occ(86,3,10) occ(13,4,2) occ(25,4,4) occ(37,4,6) occ(43,4,1) occ(60,4,8) occ(66,4,5) occ(70,4,7) occ(74,4,3) occ(9,5,3) occ(20,5,1) occ(27,5,2) occ(39,5,4) occ(42,5,10) occ(63,5,8) occ(64,5,7) occ(72,5,5) occ(84,5,9) occ(11,6,1) occ(15,6,3) occ(23,6,5) occ(41,6,2) occ(44,6,8) occ(58,6,7) occ(62,6,9) occ(65,6,10) occ(68,6,6) occ(76,6,4) occ(7,7,4) occ(17,7,5) occ(18,7,2) occ(21,7,7) occ(46,7,10) occ(56,7,9) occ(82,7,8) occ(85,7,3) occ(8,8,6) occ(12,8,4) occ(48,8,8) occ(52,8,10) occ(67,8,9) occ(71,8,7) occ(78,8,5) occ(79,8,3) occ(87,8,1) occ(4,9,5) occ(5,9,3) occ(16,9,1) occ(19,9,6) occ(54,9,8) occ(75,9,4) occ(80,9,7) occ(83,9,2) occ(6,10,7) occ(10,10,5) occ(14,10,3) occ(50,10,9) occ(69,10,8) occ(73,10,6) occ(77,10,2) occ(81,10,4)
Optimization: -89
Answer: 21
occ(1,5,6) occ(1,9,9) occ(1,7,1) occ(1,2,5) occ(1,1,3) occ(1,2,6) occ(1,8,2) occ(1,4,9) occ(1,4,10) occ(2,7,6) occ(3,10,1) coverage(90) occ(24,1,7) occ(28,1,5) occ(29,1,1) occ(40,1,9) occ(46,1,8) occ(63,1,6) occ(67,1,2) occ(83,1,4) occ(22,2,9) occ(27,2,3) occ(38,2,7) occ(44,2,10) occ(61,2,8) occ(65,2,4) occ(79,2,1) occ(85,2,2) occ(21,3,9) occ(25,3,5) occ(26,3,6) occ(30,3,4) occ(31,3,2) occ(42,3,8) occ(48,3,7) occ(59,3,10) occ(69,3,1) occ(81,3,3) occ(20,4,8) occ(23,4,7) occ(36,4,6) occ(50,4,5) occ(73,4,4) occ(77,4,2) occ(87,4,3) occ(18,5,10) occ(19,5,8) occ(32,5,3) occ(33,5,1) occ(47,5,4) occ(57,5,9) occ(71,5,2) occ(88,5,7) occ(89,5,5) occ(4,6,4) occ(14,6,7) occ(17,6,10) occ(34,6,5) occ(52,6,6) occ(53,6,8) occ(56,6,2) occ(75,6,3) occ(86,6,9) occ(15,7,8) occ(16,7,9) occ(35,7,2) occ(45,7,3) occ(49,7,5) occ(54,7,4) occ(55,7,10) occ(84,7,7) occ(6,8,3) occ(12,8,6) occ(13,8,10) occ(41,8,4) occ(51,8,7) occ(58,8,1) occ(70,8,9) occ(76,8,8) occ(82,8,5) occ(5,9,3) occ(8,9,5) occ(9,9,7) occ(37,9,1) occ(43,9,2) occ(62,9,4) occ(66,9,8) occ(74,9,10) occ(78,9,6) occ(7,10,5) occ(10,10,7) occ(11,10,9) occ(39,10,3) occ(60,10,2) occ(64,10,6) occ(68,10,10) occ(72,10,8) occ(80,10,4)
Optimization: -90
*** Info : (clingo): INTERRUPTED by signal!
SATISFIABLE

TIME LIMIT   : 1
Models       : 21+
  Optimum    : unknown
Optimization : -90
Calls        : 1
Time         : 300.000s (Solving: 298.58s 1st Model: 0.00s Unsat: 0.00s)
CPU Time     : 300.001s
